p cnf 15 30
15 14 7 0
15 -14 -5 0
15 -13 -3 0
-15 11 10 0
-15 8 5 0
15 7 -2 0
15 -5 4 0
-15 5 2 0
15 3 1 0
14 12 2 0
14 9 5 0
14 7 -4 0
13 -12 -7 0
13 -11 -8 0
-13 11 -7 0
-13 -11 5 0
-13 -9 -6 0
13 -9 3 0
-13 8 5 0
12 10 9 0
-12 5 -4 0
12 4 -2 0
12 4 -1 0
-11 10 -6 0
11 7 -3 0
10 -7 -5 0
9 -8 -5 0
-8 -7 -3 0
-7 3 -2 0
-6 5 -4 0
